NAME          TESTPROB
ROWS
 N  COST
 L  LIM1
 G  LIM2
COLUMNS
    XONE      COST                 1   LIM1                 1
    XONE      LIM2                 1
    YTWO      COST                 1   LIM1                 1
    YTWO      LIM2                 1
RHS
    RHS1      LIM1                 5   LIM2                2
BOUNDS
ENDATA
